<number of tasks>
28

<cycle time>
216

<task times>
1 70
2 59
3 33
4 6
5 1
6 27
7 17
8 62
9 31
10 53
11 21
12 19
13 108
14 52
15 5
16 8
17 97
18 8
19 47
20 67
21 17
22 8
23 3
24 21
25 107
26 3
27 2
28 72

<precedence relations>
1,2
1,3
1,4
1,5
1,8
1,19
1,21
1,22
1,23
1,24
1,26
2,6
2,17
3,28
4,28
5,28
6,7
7,18
8,9
9,10
10,11
10,12
11,15
12,13
13,14
13,16
14,28
15,28
16,28
17,28
18,28
19,20
20,28
21,28
22,28
23,28
24,25
25,28
26,27
27,28

<setup times forward>
1,3:3
1,4:5
1,19:14
1,21:5
1,22:6
1,23:3
2,3:3
2,4:5
2,6:14
2,9:14
2,10:14
2,11:14
2,12:14
2,13:6
2,14:5
2,15:5
2,16:5
2,17:6
2,19:14
2,20:5
2,21:5
2,22:6
2,23:3
2,25:3
2,27:6
3,2:3
3,4:2
3,5:3
3,6:11
3,7:11
3,8:3
3,9:11
3,10:11
3,11:11
3,12:11
3,13:9
3,14:2
3,15:2
3,16:2
3,17:9
3,18:2
3,19:11
3,20:2
3,21:2
3,22:9
3,24:3
3,26:3
3,27:9
4,2:5
4,3:2
4,5:5
4,6:9
4,7:9
4,8:5
4,9:9
4,10:9
4,11:9
4,12:9
4,13:11
4,17:11
4,19:9
4,22:11
4,23:2
4,24:5
4,25:2
4,26:5
4,27:11
4,28:2
5,3:3
5,4:5
5,6:14
5,7:14
5,9:14
5,10:14
5,11:14
5,12:14
5,13:6
5,14:5
5,15:5
5,16:5
5,17:6
5,18:5
5,19:14
5,20:5
5,21:5
5,22:6
5,23:3
5,25:3
5,27:6
5,28:3
6,3:11
6,4:9
6,5:14
6,8:14
6,13:20
6,14:9
6,15:9
6,16:9
6,17:20
6,20:9
6,21:9
6,22:20
6,23:11
6,24:14
6,25:11
6,26:14
6,27:20
7,3:11
7,4:9
7,5:14
7,8:14
7,13:20
7,14:9
7,15:9
7,16:9
7,17:20
7,18:9
7,20:9
7,21:9
7,22:20
7,23:11
7,24:14
7,25:11
7,26:14
7,27:20
8,3:3
8,4:5
8,6:14
8,7:14
8,9:14
8,17:6
8,18:5
8,19:14
8,20:5
8,21:5
8,22:6
8,23:3
8,25:3
8,27:6
9,2:14
9,3:11
9,4:9
9,5:14
9,17:20
9,18:9
9,20:9
9,21:9
9,22:20
9,23:11
9,24:14
9,25:11
9,26:14
9,27:20
10,2:14
10,3:11
10,4:9
10,5:14
10,17:20
10,18:9
10,20:9
10,21:9
10,22:20
10,23:11
10,24:14
10,25:11
10,26:14
10,27:20
11,2:14
11,3:11
11,4:9
11,5:14
11,13:20
11,14:9
11,15:9
11,16:9
11,17:20
11,18:9
11,20:9
11,21:9
11,22:20
11,23:11
11,24:14
11,25:11
11,26:14
11,27:20
12,2:14
12,3:11
12,4:9
12,5:14
12,13:20
12,15:9
12,17:20
12,18:9
12,20:9
12,21:9
12,22:20
12,23:11
12,24:14
12,25:11
12,26:14
12,27:20
13,2:6
13,3:9
13,4:11
13,5:6
13,6:20
13,7:20
13,11:20
13,14:11
13,15:11
13,16:11
13,18:11
13,19:20
13,20:11
13,21:11
13,23:9
13,24:6
13,25:9
13,26:6
14,2:5
14,3:2
14,5:5
14,6:9
14,7:9
14,11:9
14,17:11
14,19:9
14,22:11
14,23:2
14,24:5
14,25:2
14,26:5
14,27:11
14,28:2
15,2:5
15,3:2
15,5:5
15,6:9
15,7:9
15,12:9
15,13:11
15,17:11
15,19:9
15,22:11
15,23:2
15,24:5
15,25:2
15,26:5
15,27:11
15,28:2
16,2:5
16,3:2
16,5:5
16,6:9
16,7:9
16,11:9
16,17:11
16,19:9
16,22:11
16,23:2
16,24:5
16,25:2
16,26:5
16,27:11
16,28:2
17,3:9
17,4:11
17,5:6
17,6:20
17,7:20
17,8:6
17,9:20
17,10:20
17,11:20
17,12:20
17,14:11
17,15:11
17,16:11
17,18:11
17,19:20
17,20:11
17,21:11
17,23:9
17,24:6
17,25:9
17,26:6
17,28:9
18,3:2
18,5:5
18,8:5
18,9:9
18,10:9
18,11:9
18,12:9
18,13:11
18,17:11
18,19:9
18,22:11
18,23:2
18,24:5
18,25:2
18,26:5
18,27:11
18,28:2
19,2:14
19,3:11
19,4:9
19,5:14
19,8:14
19,13:20
19,14:9
19,15:9
19,16:9
19,17:20
19,18:9
19,20:9
19,21:9
19,22:20
19,23:11
19,24:14
19,25:11
19,26:14
19,27:20
20,2:5
20,3:2
20,5:5
20,6:9
20,7:9
20,8:5
20,9:9
20,10:9
20,11:9
20,12:9
20,13:11
20,17:11
20,22:11
20,23:2
20,24:5
20,25:2
20,26:5
20,27:11
20,28:2
21,2:5
21,3:2
21,5:5
21,6:9
21,7:9
21,8:5
21,9:9
21,10:9
21,11:9
21,12:9
21,13:11
21,17:11
21,19:9
21,22:11
21,23:2
21,24:5
21,25:2
21,26:5
21,27:11
21,28:2
22,2:6
22,3:9
22,4:11
22,5:6
22,6:20
22,7:20
22,8:6
22,9:20
22,10:20
22,11:20
22,12:20
22,14:11
22,15:11
22,16:11
22,18:11
22,19:20
22,20:11
22,21:11
22,23:9
22,24:6
22,25:9
22,26:6
22,28:9
23,2:3
23,4:2
23,5:3
23,6:11
23,7:11
23,8:3
23,9:11
23,10:11
23,11:11
23,12:11
23,13:9
23,14:2
23,15:2
23,16:2
23,17:9
23,18:2
23,19:11
23,20:2
23,21:2
23,22:9
23,24:3
23,26:3
23,27:9
24,3:3
24,4:5
24,6:14
24,7:14
24,9:14
24,10:14
24,11:14
24,12:14
24,13:6
24,14:5
24,15:5
24,16:5
24,17:6
24,18:5
24,19:14
24,20:5
24,21:5
24,22:6
24,23:3
24,25:3
24,27:6
25,2:3
25,4:2
25,5:3
25,6:11
25,7:11
25,8:3
25,9:11
25,10:11
25,11:11
25,12:11
25,13:9
25,14:2
25,15:2
25,16:2
25,17:9
25,18:2
25,19:11
25,20:2
25,21:2
25,22:9
25,26:3
25,27:9
26,3:3
26,4:5
26,6:14
26,7:14
26,9:14
26,10:14
26,11:14
26,12:14
26,13:6
26,14:5
26,15:5
26,16:5
26,17:6
26,18:5
26,19:14
26,20:5
26,21:5
26,22:6
26,23:3
26,25:3
26,27:6
27,2:6
27,3:9
27,4:11
27,5:6
27,6:20
27,7:20
27,8:6
27,9:20
27,10:20
27,11:20
27,12:20
27,14:11
27,15:11
27,16:11
27,18:11
27,19:20
27,20:11
27,21:11
27,23:9
27,24:6
27,25:9
27,28:9

<setup times backward>
2,13:6
2,22:6
2,27:6
3,1:3
3,2:3
3,5:3
3,8:3
3,13:9
3,17:9
3,22:9
3,24:3
3,26:3
3,27:9
4,1:5
4,2:5
4,3:2
4,5:5
4,8:5
4,13:11
4,17:11
4,22:11
4,23:2
4,24:5
4,25:2
4,26:5
4,27:11
5,13:6
5,17:6
5,22:6
5,27:6
6,1:14
6,2:14
6,3:11
6,4:9
6,5:14
6,8:14
6,13:20
6,14:9
6,15:9
6,16:9
6,17:20
6,20:9
6,21:9
6,22:20
6,23:11
6,24:14
6,25:11
6,26:14
6,27:20
7,1:14
7,2:14
7,3:11
7,4:9
7,5:14
7,8:14
7,13:20
7,14:9
7,15:9
7,16:9
7,17:20
7,20:9
7,21:9
7,22:20
7,23:11
7,24:14
7,25:11
7,26:14
7,27:20
8,17:6
8,22:6
8,27:6
9,1:14
9,2:14
9,3:11
9,4:9
9,5:14
9,8:14
9,17:20
9,18:9
9,20:9
9,21:9
9,22:20
9,23:11
9,24:14
9,25:11
9,26:14
9,27:20
10,1:14
10,2:14
10,3:11
10,4:9
10,5:14
10,8:14
10,17:20
10,18:9
10,20:9
10,21:9
10,22:20
10,23:11
10,24:14
10,25:11
10,26:14
10,27:20
11,1:14
11,2:14
11,3:11
11,4:9
11,5:14
11,8:14
11,13:20
11,14:9
11,16:9
11,17:20
11,18:9
11,20:9
11,21:9
11,22:20
11,23:11
11,24:14
11,25:11
11,26:14
11,27:20
12,1:14
12,2:14
12,3:11
12,4:9
12,5:14
12,8:14
12,15:9
12,17:20
12,18:9
12,20:9
12,21:9
12,22:20
12,23:11
12,24:14
12,25:11
12,26:14
12,27:20
14,1:5
14,2:5
14,3:2
14,5:5
14,8:5
14,13:11
14,17:11
14,22:11
14,23:2
14,24:5
14,25:2
14,26:5
14,27:11
15,1:5
15,2:5
15,3:2
15,5:5
15,8:5
15,13:11
15,17:11
15,22:11
15,23:2
15,24:5
15,25:2
15,26:5
15,27:11
16,1:5
16,2:5
16,3:2
16,5:5
16,8:5
16,13:11
16,17:11
16,22:11
16,23:2
16,24:5
16,25:2
16,26:5
16,27:11
18,1:5
18,2:5
18,3:2
18,5:5
18,8:5
18,13:11
18,17:11
18,22:11
18,23:2
18,24:5
18,25:2
18,26:5
18,27:11
19,1:14
19,2:14
19,3:11
19,4:9
19,5:14
19,8:14
19,13:20
19,14:9
19,15:9
19,16:9
19,17:20
19,18:9
19,21:9
19,22:20
19,23:11
19,24:14
19,25:11
19,26:14
19,27:20
20,1:5
20,2:5
20,3:2
20,5:5
20,8:5
20,13:11
20,17:11
20,22:11
20,23:2
20,24:5
20,25:2
20,26:5
20,27:11
21,1:5
21,2:5
21,3:2
21,5:5
21,8:5
21,13:11
21,17:11
21,22:11
21,23:2
21,24:5
21,25:2
21,26:5
21,27:11
23,1:3
23,2:3
23,5:3
23,8:3
23,13:9
23,17:9
23,22:9
23,24:3
23,26:3
23,27:9
24,13:6
24,17:6
24,22:6
24,27:6
25,1:3
25,2:3
25,5:3
25,8:3
25,13:9
25,17:9
25,22:9
25,24:3
25,26:3
25,27:9
26,13:6
26,17:6
26,22:6
28,1:3
28,2:3
28,5:3
28,8:3
28,13:9
28,17:9
28,22:9
28,24:3
28,26:3
28,27:9

<end>

<optimal SALBP-1 value>
5


<rand seed>
467321153

